
Gurobi 10.0.3 (linux64, gurobi_cl) logging started Thu Nov  2 11:33:57 2023

Set parameter Username
Set parameter TimeLimit to value 3600
Set parameter LogFile to value "RCPSP_49.log"
Set parameter Threads to value 32
Academic license - for non-commercial use only - expires 2024-10-30
Using license file /home/jrivera6/gurobi-licenses/v1003/compute-0-35/gurobi.lic

Gurobi Optimizer version 10.0.3 build v10.0.3rc0 (linux64)
Copyright (c) 2023, Gurobi Optimization, LLC

Read MPS format model from file RCPSP_49.mps
Reading time = 0.02 seconds
RCPSP_49: 5329 rows, 2080 columns, 17044 nonzeros

CPU model: Intel(R) Xeon(R) Gold 6130 CPU @ 2.10GHz, instruction set [SSE2|AVX|AVX2|AVX512]
Thread count: 32 physical cores, 32 logical processors, using up to 32 threads

Optimize a model with 5329 rows, 2080 columns and 17044 nonzeros
Model fingerprint: 0x5115ed20
Variable types: 32 continuous, 2048 integer (2048 binary)
Coefficient statistics:
  Matrix range     [1e+00, 1e+02]
  Objective range  [1e+00, 1e+00]
  Bounds range     [1e+00, 1e+00]
  RHS range        [1e+00, 2e+02]
Presolve removed 2652 rows and 982 columns
Presolve time: 0.18s
Presolved: 2677 rows, 1098 columns, 8807 nonzeros
Variable types: 31 continuous, 1067 integer (1067 binary)

Root relaxation: objective 4.200000e+01, 401 iterations, 0.00 seconds (0.00 work units)

    Nodes    |    Current Node    |     Objective Bounds      |     Work
 Expl Unexpl |  Obj  Depth IntInf | Incumbent    BestBd   Gap | It/Node Time

     0     0   42.00000    0   34          -   42.00000      -     -    0s
H    0     0                      53.0000000   42.00000  20.8%     -    0s
     0     0   42.00000    0   97   53.00000   42.00000  20.8%     -    0s
     0     0   42.00000    0  111   53.00000   42.00000  20.8%     -    0s
     0     0   42.00000    0  116   53.00000   42.00000  20.8%     -    0s
     0     0   42.00000    0   94   53.00000   42.00000  20.8%     -    1s
     0     0   42.00000    0  101   53.00000   42.00000  20.8%     -    1s
     0     0   42.00000    0  102   53.00000   42.00000  20.8%     -    1s
     0     0   42.00000    0   74   53.00000   42.00000  20.8%     -    2s
     0     0   42.00000    0  105   53.00000   42.00000  20.8%     -    2s
     0     0   42.00000    0   90   53.00000   42.00000  20.8%     -    2s
     0     0   42.00000    0   45   53.00000   42.00000  20.8%     -    2s
     0     0   42.00000    0   44   53.00000   42.00000  20.8%     -    2s
     0     0   42.00000    0   78   53.00000   42.00000  20.8%     -    3s
     0     0   42.66667    0   92   53.00000   42.66667  19.5%     -    3s
     0     0   42.66667    0  150   53.00000   42.66667  19.5%     -    3s
H    0     0                      52.0000000   42.66667  17.9%     -    3s
     0     0   42.66667    0  167   52.00000   42.66667  17.9%     -    3s
     0     0   42.66667    0  147   52.00000   42.66667  17.9%     -    4s
     0     0   42.66667    0  121   52.00000   42.66667  17.9%     -    4s
     0     0   42.66667    0   63   52.00000   42.66667  17.9%     -    4s
     0     0   42.66667    0   65   52.00000   42.66667  17.9%     -    4s
     0     0   42.66837    0  130   52.00000   42.66837  17.9%     -    4s
     0     0   42.66837    0  128   52.00000   42.66837  17.9%     -    4s
     0     0   42.76728    0   75   52.00000   42.76728  17.8%     -    5s
     0     0   42.78801    0   95   52.00000   42.78801  17.7%     -    5s
     0     0   42.79809    0  130   52.00000   42.79809  17.7%     -    5s
     0     0   42.79809    0  144   52.00000   42.79809  17.7%     -    5s
     0     0   42.80073    0  132   52.00000   42.80073  17.7%     -    5s
     0     0   42.80073    0  134   52.00000   42.80073  17.7%     -    5s
     0     0   42.80073    0  164   52.00000   42.80073  17.7%     -    5s
     0     0   42.97006    0  117   52.00000   42.97006  17.4%     -    5s
     0     0   42.98328    0  118   52.00000   42.98328  17.3%     -    5s
     0     0   42.98328    0  150   52.00000   42.98328  17.3%     -    5s
     0     0   42.99079    0  109   52.00000   42.99079  17.3%     -    6s
     0     0   43.11043    0  134   52.00000   43.11043  17.1%     -    6s
     0     0   43.25967    0  101   52.00000   43.25967  16.8%     -    6s
     0     0   43.26115    0  102   52.00000   43.26115  16.8%     -    6s
     0     0   43.26115    0  158   52.00000   43.26115  16.8%     -    6s
     0     0   43.26115    0  136   52.00000   43.26115  16.8%     -    6s
     0     0   43.26115    0  113   52.00000   43.26115  16.8%     -    6s
     0     0   43.27149    0  160   52.00000   43.27149  16.8%     -    6s
     0     0   43.27149    0  138   52.00000   43.27149  16.8%     -    6s
     0     0   43.27149    0  124   52.00000   43.27149  16.8%     -    6s
     0     0   43.27149    0  139   52.00000   43.27149  16.8%     -    7s
     0     0   43.27149    0  152   52.00000   43.27149  16.8%     -    7s
     0     0   43.27149    0  117   52.00000   43.27149  16.8%     -    7s
     0     0   43.27149    0  146   52.00000   43.27149  16.8%     -    7s
     0     0   43.27149    0  136   52.00000   43.27149  16.8%     -    7s
     0     0   43.27149    0   61   52.00000   43.27149  16.8%     -    7s
     0     0   43.27149    0  103   52.00000   43.27149  16.8%     -    7s
     0     0   43.27149    0   71   52.00000   43.27149  16.8%     -    7s
     0     0   43.27149    0   70   52.00000   43.27149  16.8%     -    7s
     0     0   43.27149    0   91   52.00000   43.27149  16.8%     -    8s
     0     0   43.27149    0   43   52.00000   43.27149  16.8%     -    8s
H    0     0                      51.0000000   43.27149  15.2%     -    8s
     0     0   43.27149    0   87   51.00000   43.27149  15.2%     -    8s
     0     0   43.29257    0   67   51.00000   43.29257  15.1%     -    8s
     0     0   43.29311    0  109   51.00000   43.29311  15.1%     -    8s
     0     0   43.29376    0  104   51.00000   43.29376  15.1%     -    8s
     0     0   43.29376    0  119   51.00000   43.29376  15.1%     -    9s
     0     0   43.29804    0  136   51.00000   43.29804  15.1%     -    9s
     0     0   43.29804    0  114   51.00000   43.29804  15.1%     -    9s
     0     0   43.29804    0  170   51.00000   43.29804  15.1%     -    9s
     0     0   43.29868    0  122   51.00000   43.29868  15.1%     -    9s
     0     0   43.29868    0  157   51.00000   43.29868  15.1%     -    9s
     0     0   43.29868    0   51   51.00000   43.29868  15.1%     -   10s
     0     0   43.29868    0   96   51.00000   43.29868  15.1%     -   10s
     0     0   43.29868    0  123   51.00000   43.29868  15.1%     -   10s
     0     0   43.29868    0   60   51.00000   43.29868  15.1%     -   10s
H    0     0                      50.0000000   43.29868  13.4%     -   10s
     0     0   43.29868    0   22   50.00000   43.29868  13.4%     -   14s
     0     0   43.29868    0  103   50.00000   43.29868  13.4%     -   15s
     0     0   43.49692    0  109   50.00000   43.49692  13.0%     -   16s
     0     0   47.00000    0   56   50.00000   47.00000  6.00%     -   22s
     0     0   47.00000    0   46   50.00000   47.00000  6.00%     -   23s
H    0     0                      50.0000000   47.00000  6.00%     -   24s
     0     0   47.00000    0   42   50.00000   47.00000  6.00%     -   24s
H    0     0                      49.0000000   47.00000  4.08%     -   25s
     0     0   47.00000    0   47   49.00000   47.00000  4.08%     -   25s
     0     0   47.00000    0   83   49.00000   47.00000  4.08%     -   26s
     0     0   47.00000    0   85   49.00000   47.00000  4.08%     -   27s
     0     0   47.00000    0   12   49.00000   47.00000  4.08%     -   28s
     0     0   47.00000    0   32   49.00000   47.00000  4.08%     -   35s
     0     0   49.00000    0  104   49.00000   49.00000  0.00%     -   37s

Cutting planes:
  Learned: 2
  Gomory: 3
  Cover: 15
  Implied bound: 6
  Clique: 6
  MIR: 45
  StrongCG: 7
  Flow cover: 5
  GUB cover: 1
  RLT: 19
  Relax-and-lift: 3

Explored 1 nodes (28295 simplex iterations) in 37.46 seconds (2.32 work units)
Thread count was 32 (of 32 available processors)

Solution count 6: 49 50 50 ... 53

Optimal solution found (tolerance 1.00e-04)
Best objective 4.900000000000e+01, best bound 4.900000000000e+01, gap 0.0000%

Wrote result file 'RCPSP_49.sol'

